param n := 249;
param c := 10000
param : V : p w :=
   0	  83	 372
   1	  19	 289
   2	  32	 339
   3	  51	 387
   4	  37	 297
   5	  97	 316
   6	  48	 351
   7	  66	 257
   8	  46	 392
   9	  89	 393
  10	   7	 261
  11	  83	 346
  12	   8	 429
  13	  12	 277
  14	  74	 294
  15	  98	 366
  16	  29	 282
  17	  51	 352
  18	  18	 497
  19	  28	 250
  20	  33	 253
  21	   1	 414
  22	  97	 255
  23	  70	 331
  24	  92	 357
  25	  41	 263
  26	  79	 380
  27	  53	 415
  28	  99	 250
  29	  78	 335
  30	   6	 395
  31	  93	 284
  32	  69	 321
  33	 100	 461
  34	  15	 255
  35	  57	 284
  36	  93	 357
  37	  71	 274
  38	  21	 369
  39	  54	 466
  40	  25	 251
  41	  19	 283
  42	   7	 427
  43	  83	 284
  44	  97	 289
  45	  88	 480
  46	  13	 250
  47	  76	 270
  48	  51	 366
  49	  69	 282
  50	   5	 352
  51	   6	 396
  52	  51	 269
  53	  65	 335
  54	  44	 491
  55	  53	 253
  56	  95	 256
  57	  40	 479
  58	  21	 259
  59	  21	 262
  60	   1	 495
  61	  28	 250
  62	  92	 255
  63	  65	 460
  64	  41	 269
  65	  71	 271
  66	  99	 371
  67	  81	 308
  68	  88	 321
  69	  69	 496
  70	  70	 250
  71	  23	 254
  72	  13	 428
  73	  47	 258
  74	  44	 314
  75	  93	 465
  76	  52	 253
  77	  27	 282
  78	  82	 352
  79	  42	 298
  80	  33	 350
  81	  63	 410
  82	  42	 254
  83	  15	 336
  84	  26	 407
  85	   2	 293
  86	  96	 300
  87	  72	 389
  88	  22	 295
  89	  76	 316
  90	  47	 453
  91	  48	 269
  92	  18	 278
  93	   6	 448
  94	  74	 274
  95	  24	 278
  96	  40	 479
  97	  42	 258
  98	   6	 263
  99	  83	 457
 100	  96	 254
 101	  73	 289
 102	  61	 478
 103	  29	 254
 104	  81	 268
 105	  21	 374
 106	  96	 294
 107	  39	 332
 108	  83	 415
 109	  66	 275
 110	  62	 310
 111	  77	 352
 112	  13	 265
 113	  99	 383
 114	  68	 403
 115	  21	 284
 116	  33	 313
 117	  13	 414
 118	  43	 278
 119	   7	 308
 120	  29	 447
 121	  23	 264
 122	  63	 289
 123	 100	 432
 124	  48	 251
 125	  45	 317
 126	  85	 443
 127	  82	 257
 128	  55	 300
 129	  61	 467
 130	  42	 259
 131	  56	 274
 132	  96	 493
 133	   8	 251
 134	   5	 256
 135	  69	 436
 136	  83	 264
 137	  32	 300
 138	  12	 394
 139	  50	 264
 140	  17	 342
 141	  65	 492
 142	  61	 252
 143	  59	 256
 144	  61	 482
 145	  71	 252
 146	  64	 266
 147	  35	 420
 148	  56	 270
 149	  76	 310
 150	  77	 375
 151	  77	 285
 152	  60	 340
 153	  83	 376
 154	  92	 306
 155	  41	 318
 156	  13	 423
 157	  36	 264
 158	   8	 313
 159	   3	 452
 160	  50	 263
 161	  18	 285
 162	  54	 364
 163	  97	 252
 164	  17	 384
 165	   9	 494
 166	  68	 251
 167	  52	 255
 168	  63	 363
 169	  70	 257
 170	   7	 380
 171	  93	 369
 172	 100	 261
 173	   5	 370
 174	  13	 395
 175	  14	 259
 176	  66	 346
 177	  36	 386
 178	  11	 260
 179	  40	 354
 180	  51	 453
 181	   5	 257
 182	  76	 290
 183	  39	 412
 184	  68	 256
 185	  13	 332
 186	  36	 362
 187	  37	 313
 188	  97	 325
 189	   3	 453
 190	  65	 258
 191	  10	 289
 192	  41	 439
 193	  51	 252
 194	  57	 309
 195	  96	 457
 196	  95	 250
 197	  40	 293
 198	  95	 414
 199	  10	 291
 200	  82	 295
 201	 100	 432
 202	   7	 256
 203	  29	 312
 204	  74	 444
 205	  36	 256
 206	   3	 300
 207	  67	 479
 208	  26	 250
 209	  34	 271
 210	  25	 494
 211	  87	 251
 212	  21	 255
 213	  70	 408
 214	  47	 290
 215	  46	 302
 216	  18	 499
 217	  12	 250
 218	  57	 251
 219	   9	 440
 220	  94	 257
 221	  96	 303
 222	  63	 406
 223	  75	 280
 224	  83	 314
 225	  68	 442
 226	  92	 253
 227	  45	 305
 228	  23	 475
 229	  21	 262
 230	  77	 263
 231	  59	 413
 232	  68	 266
 233	   5	 321
 234	  46	 356
 235	  23	 293
 236	  95	 351
 237	  94	 393
 238	   3	 266
 239	  77	 341
 240	  84	 468
 241	  98	 259
 242	  53	 273
 243	  77	 448
 244	  52	 254
 245	  93	 298
 246	  70	 350
 247	  71	 250
 248	  14	 400
;

set E :=
   0	   4
   0	   6
   0	  15
   0	  16
   0	  23
   0	  30
   0	  38
   0	  58
   0	  71
   0	  92
   0	  95
   0	 126
   0	 134
   0	 141
   0	 144
   0	 147
   0	 164
   0	 178
   0	 213
   0	 218
   0	 222
   0	 223
   0	 236
   1	  13
   1	  15
   1	  30
   1	  31
   1	  32
   1	  52
   1	  54
   1	  72
   1	  79
   1	  98
   1	 111
   1	 128
   1	 129
   1	 145
   1	 146
   1	 157
   1	 161
   1	 165
   1	 166
   1	 191
   1	 194
   1	 203
   1	 233
   2	   5
   2	  23
   2	  31
   2	  33
   2	  63
   2	  75
   2	  87
   2	 113
   2	 114
   2	 117
   2	 123
   2	 138
   2	 142
   2	 144
   2	 146
   2	 149
   2	 153
   2	 186
   2	 205
   2	 236
   3	   5
   3	  23
   3	  58
   3	  66
   3	  67
   3	  68
   3	  69
   3	  84
   3	  87
   3	 115
   3	 123
   3	 130
   3	 140
   3	 162
   3	 175
   3	 178
   3	 181
   3	 189
   3	 198
   3	 202
   3	 212
   3	 222
   3	 240
   4	   5
   4	  28
   4	  30
   4	  44
   4	  60
   4	  66
   4	  70
   4	  76
   4	  78
   4	  82
   4	  83
   4	  93
   4	  94
   4	  98
   4	 149
   4	 162
   4	 170
   4	 220
   4	 224
   4	 225
   4	 233
   4	 243
   4	 244
   4	 247
   5	  21
   5	  24
   5	  30
   5	  47
   5	  48
   5	  50
   5	  62
   5	  69
   5	  71
   5	  87
   5	  91
   5	  93
   5	 121
   5	 126
   5	 141
   5	 146
   5	 153
   5	 167
   5	 171
   5	 194
   5	 195
   5	 197
   5	 208
   5	 211
   5	 220
   5	 221
   5	 235
   5	 242
   6	  12
   6	  36
   6	  38
   6	  86
   6	 116
   6	 143
   6	 147
   6	 152
   6	 162
   6	 195
   6	 213
   6	 219
   6	 224
   6	 230
   6	 248
   7	   9
   7	  17
   7	  35
   7	  56
   7	  60
   7	  79
   7	  83
   7	 105
   7	 111
   7	 114
   7	 117
   7	 132
   7	 149
   7	 159
   7	 161
   7	 168
   7	 174
   7	 176
   7	 199
   7	 211
   7	 217
   7	 227
   7	 233
   7	 241
   7	 245
   7	 247
   8	  12
   8	  16
   8	  19
   8	  29
   8	  37
   8	  46
   8	  47
   8	  82
   8	  95
   8	 114
   8	 119
   8	 122
   8	 132
   8	 137
   8	 176
   8	 187
   8	 201
   8	 205
   8	 207
   8	 213
   8	 215
   8	 222
   9	  18
   9	  20
   9	  35
   9	  66
   9	  73
   9	  74
   9	  80
   9	  82
   9	  88
   9	  97
   9	  99
   9	 100
   9	 126
   9	 146
   9	 158
   9	 161
   9	 172
   9	 179
   9	 180
   9	 181
   9	 187
   9	 194
   9	 197
   9	 209
   9	 222
   9	 234
   9	 237
   9	 239
   9	 248
  10	  23
  10	  31
  10	  43
  10	  49
  10	  63
  10	  69
  10	  78
  10	  91
  10	  94
  10	 103
  10	 105
  10	 140
  10	 190
  10	 192
  10	 203
  10	 238
  11	  19
  11	  36
  11	  48
  11	  94
  11	  97
  11	 108
  11	 113
  11	 136
  11	 148
  11	 154
  11	 162
  11	 167
  11	 186
  11	 193
  11	 197
  11	 201
  11	 207
  11	 208
  11	 211
  11	 226
  11	 231
  11	 237
  12	  31
  12	  39
  12	  40
  12	  71
  12	  83
  12	  92
  12	  96
  12	 112
  12	 124
  12	 125
  12	 155
  12	 162
  12	 180
  12	 193
  12	 206
  12	 208
  12	 210
  12	 217
  12	 224
  12	 239
  13	  16
  13	  17
  13	  20
  13	  31
  13	  44
  13	  48
  13	  51
  13	  54
  13	  75
  13	  76
  13	  82
  13	 102
  13	 118
  13	 123
  13	 155
  13	 195
  13	 197
  13	 207
  13	 212
  13	 217
  13	 222
  13	 228
  13	 246
  14	  45
  14	  66
  14	  74
  14	  82
  14	 106
  14	 139
  14	 145
  14	 147
  14	 167
  14	 201
  14	 219
  14	 221
  14	 223
  14	 231
  14	 234
  14	 246
  15	  16
  15	  25
  15	  32
  15	  33
  15	  34
  15	  44
  15	  46
  15	  51
  15	  52
  15	  60
  15	  63
  15	  75
  15	  93
  15	  98
  15	 101
  15	 116
  15	 121
  15	 124
  15	 137
  15	 138
  15	 157
  15	 158
  15	 173
  15	 186
  15	 205
  15	 210
  15	 228
  15	 229
  15	 243
  16	  17
  16	  48
  16	  58
  16	  67
  16	  80
  16	  82
  16	  83
  16	  87
  16	  93
  16	  94
  16	  96
  16	 103
  16	 113
  16	 114
  16	 133
  16	 149
  16	 159
  16	 186
  16	 187
  16	 193
  16	 203
  16	 214
  16	 230
  17	  18
  17	  20
  17	  23
  17	  27
  17	  48
  17	  56
  17	  64
  17	  67
  17	  77
  17	  84
  17	  96
  17	  99
  17	 102
  17	 108
  17	 110
  17	 113
  17	 115
  17	 141
  17	 142
  17	 153
  17	 178
  17	 181
  17	 197
  17	 213
  17	 216
  17	 219
  17	 243
  17	 248
  18	  34
  18	  43
  18	  62
  18	  64
  18	  66
  18	  71
  18	  86
  18	  90
  18	  93
  18	 102
  18	 106
  18	 109
  18	 123
  18	 126
  18	 144
  18	 153
  18	 156
  18	 162
  18	 171
  18	 203
  18	 206
  18	 220
  18	 224
  18	 239
  19	  28
  19	  34
  19	  37
  19	  43
  19	  45
  19	  48
  19	  49
  19	  54
  19	  58
  19	  63
  19	  99
  19	 111
  19	 113
  19	 116
  19	 117
  19	 119
  19	 127
  19	 132
  19	 133
  19	 153
  19	 184
  19	 186
  19	 198
  19	 216
  20	  31
  20	  38
  20	  43
  20	  48
  20	  86
  20	  94
  20	  97
  20	  98
  20	 116
  20	 125
  20	 133
  20	 151
  20	 155
  20	 168
  20	 169
  20	 172
  20	 177
  20	 188
  20	 218
  20	 220
  20	 246
  21	  24
  21	  32
  21	  33
  21	  35
  21	  37
  21	  74
  21	  79
  21	 106
  21	 114
  21	 117
  21	 133
  21	 137
  21	 147
  21	 161
  21	 164
  21	 171
  21	 180
  21	 186
  21	 196
  21	 203
  21	 232
  21	 240
  22	  40
  22	  44
  22	  45
  22	  53
  22	  55
  22	  63
  22	  74
  22	  88
  22	  92
  22	 104
  22	 108
  22	 113
  22	 118
  22	 139
  22	 142
  22	 144
  22	 163
  22	 173
  22	 179
  22	 192
  22	 204
  22	 212
  22	 235
  22	 239
  22	 247
  23	  32
  23	  46
  23	  68
  23	  70
  23	  72
  23	  77
  23	  89
  23	  91
  23	  97
  23	 108
  23	 131
  23	 145
  23	 147
  23	 148
  23	 152
  23	 158
  23	 186
  23	 213
  23	 216
  23	 237
  24	  35
  24	  44
  24	  72
  24	  74
  24	  83
  24	  85
  24	  88
  24	 101
  24	 105
  24	 131
  24	 132
  24	 133
  24	 158
  24	 165
  24	 166
  24	 167
  24	 173
  24	 200
  24	 205
  24	 211
  24	 239
  24	 247
  25	  32
  25	  35
  25	  41
  25	  44
  25	  68
  25	  69
  25	  95
  25	 106
  25	 107
  25	 109
  25	 114
  25	 118
  25	 120
  25	 123
  25	 157
  25	 165
  25	 172
  25	 177
  25	 180
  25	 197
  25	 201
  25	 209
  25	 215
  25	 223
  25	 232
  25	 241
  25	 247
  25	 248
  26	  34
  26	  72
  26	  82
  26	  86
  26	  95
  26	  99
  26	 127
  26	 143
  26	 146
  26	 153
  26	 163
  26	 169
  26	 171
  26	 173
  26	 190
  26	 193
  26	 199
  26	 207
  26	 228
  26	 248
  27	  49
  27	  50
  27	  55
  27	  56
  27	  57
  27	  59
  27	  60
  27	  62
  27	  67
  27	  68
  27	 114
  27	 122
  27	 127
  27	 129
  27	 130
  27	 131
  27	 135
  27	 136
  27	 138
  27	 144
  27	 152
  27	 167
  27	 184
  27	 203
  27	 214
  27	 216
  27	 236
  28	  35
  28	  48
  28	  66
  28	  69
  28	  71
  28	  96
  28	 110
  28	 121
  28	 133
  28	 142
  28	 145
  28	 169
  28	 177
  28	 178
  28	 184
  28	 191
  28	 195
  28	 200
  28	 208
  28	 216
  28	 218
  28	 233
  28	 237
  28	 244
  29	  68
  29	 109
  29	 120
  29	 123
  29	 128
  29	 132
  29	 153
  29	 160
  29	 167
  29	 194
  29	 195
  29	 203
  29	 205
  29	 209
  29	 239
  30	  47
  30	  60
  30	  80
  30	 100
  30	 106
  30	 160
  30	 161
  30	 174
  30	 175
  30	 189
  30	 194
  30	 197
  30	 203
  30	 206
  30	 214
  30	 224
  30	 231
  30	 234
  30	 241
  30	 246
  31	  39
  31	  65
  31	  68
  31	  69
  31	  89
  31	  93
  31	  97
  31	 116
  31	 124
  31	 129
  31	 130
  31	 136
  31	 138
  31	 143
  31	 155
  31	 160
  31	 168
  31	 170
  31	 174
  31	 191
  31	 192
  31	 203
  31	 213
  31	 217
  31	 221
  31	 234
  31	 236
  31	 238
  31	 240
  31	 242
  32	  40
  32	  42
  32	  56
  32	  97
  32	 101
  32	 107
  32	 110
  32	 130
  32	 158
  32	 160
  32	 163
  32	 165
  32	 177
  32	 180
  32	 190
  32	 195
  32	 205
  32	 224
  32	 231
  32	 234
  33	  55
  33	  57
  33	  87
  33	 101
  33	 104
  33	 110
  33	 114
  33	 125
  33	 127
  33	 132
  33	 151
  33	 153
  33	 158
  33	 166
  33	 167
  33	 195
  33	 205
  33	 210
  33	 215
  33	 228
  33	 235
  34	  41
  34	  50
  34	  61
  34	  97
  34	 104
  34	 111
  34	 113
  34	 152
  34	 168
  34	 187
  34	 201
  34	 210
  34	 217
  34	 220
  34	 221
  34	 227
  34	 232
  34	 246
  35	  41
  35	  51
  35	  62
  35	  70
  35	  71
  35	  83
  35	  84
  35	  93
  35	 110
  35	 126
  35	 132
  35	 147
  35	 150
  35	 154
  35	 159
  35	 162
  35	 164
  35	 176
  35	 194
  35	 203
  35	 218
  35	 220
  35	 222
  35	 232
  35	 245
  36	  38
  36	  57
  36	  68
  36	  75
  36	  91
  36	  98
  36	 110
  36	 121
  36	 129
  36	 162
  36	 165
  36	 168
  36	 173
  36	 198
  36	 200
  36	 210
  36	 212
  36	 228
  36	 229
  36	 237
  36	 240
  36	 244
  37	  38
  37	  50
  37	  53
  37	  56
  37	  58
  37	  63
  37	  67
  37	  81
  37	  86
  37	  91
  37	 106
  37	 115
  37	 119
  37	 134
  37	 135
  37	 137
  37	 138
  37	 142
  37	 145
  37	 155
  37	 158
  37	 165
  37	 189
  37	 193
  37	 195
  37	 200
  37	 248
  38	  56
  38	  71
  38	  76
  38	  79
  38	 118
  38	 123
  38	 124
  38	 156
  38	 168
  38	 193
  38	 198
  38	 204
  38	 207
  38	 209
  38	 211
  38	 214
  38	 217
  38	 238
  38	 239
  38	 242
  38	 243
  39	  53
  39	  73
  39	  85
  39	  90
  39	  91
  39	  96
  39	 126
  39	 145
  39	 152
  39	 155
  39	 157
  39	 166
  39	 176
  39	 193
  39	 205
  39	 207
  39	 212
  39	 218
  39	 219
  39	 228
  39	 242
  39	 245
  40	  58
  40	  60
  40	  64
  40	  65
  40	  70
  40	  77
  40	  82
  40	  85
  40	  99
  40	 114
  40	 136
  40	 146
  40	 150
  40	 162
  40	 176
  40	 184
  40	 186
  40	 189
  40	 207
  40	 218
  41	  76
  41	  91
  41	  92
  41	 108
  41	 110
  41	 118
  41	 122
  41	 134
  41	 135
  41	 137
  41	 156
  41	 161
  41	 163
  41	 169
  41	 173
  41	 188
  41	 189
  41	 217
  41	 219
  41	 236
  42	  67
  42	  68
  42	  75
  42	  81
  42	  93
  42	 104
  42	 123
  42	 137
  42	 145
  42	 155
  42	 160
  42	 164
  42	 180
  42	 181
  42	 190
  42	 205
  42	 206
  42	 211
  42	 228
  42	 233
  43	  44
  43	  47
  43	  74
  43	  80
  43	 128
  43	 143
  43	 157
  43	 167
  43	 177
  43	 201
  43	 206
  43	 212
  43	 217
  43	 218
  43	 222
  43	 241
  44	  53
  44	  64
  44	  70
  44	  98
  44	 102
  44	 109
  44	 131
  44	 146
  44	 161
  44	 168
  44	 169
  44	 173
  44	 176
  44	 186
  44	 190
  44	 195
  44	 199
  44	 214
  44	 225
  44	 226
  44	 232
  44	 240
  44	 242
  44	 245
  45	  51
  45	  57
  45	  69
  45	  83
  45	  84
  45	  86
  45	  90
  45	 104
  45	 121
  45	 123
  45	 133
  45	 152
  45	 157
  45	 158
  45	 168
  45	 174
  45	 178
  45	 179
  45	 194
  45	 204
  45	 209
  45	 220
  45	 227
  45	 234
  45	 246
  46	  70
  46	  79
  46	  82
  46	  84
  46	  85
  46	  87
  46	  90
  46	  93
  46	 102
  46	 127
  46	 136
  46	 137
  46	 138
  46	 149
  46	 154
  46	 165
  46	 178
  46	 212
  46	 214
  46	 221
  46	 237
  47	  51
  47	  53
  47	  54
  47	  59
  47	  80
  47	  81
  47	  86
  47	 113
  47	 125
  47	 145
  47	 147
  47	 149
  47	 162
  47	 167
  47	 180
  47	 184
  47	 188
  47	 191
  47	 196
  47	 202
  47	 204
  47	 213
  47	 218
  47	 221
  47	 227
  47	 236
  47	 245
  48	  95
  48	 105
  48	 126
  48	 134
  48	 139
  48	 147
  48	 161
  48	 164
  48	 169
  48	 215
  48	 226
  49	  55
  49	  60
  49	  64
  49	  76
  49	  78
  49	  84
  49	  98
  49	 137
  49	 140
  49	 146
  49	 148
  49	 177
  49	 179
  49	 180
  49	 200
  49	 202
  49	 216
  49	 246
  49	 247
  50	  68
  50	  70
  50	  72
  50	  74
  50	  79
  50	  85
  50	  92
  50	 101
  50	 114
  50	 119
  50	 122
  50	 136
  50	 150
  50	 154
  50	 155
  50	 166
  50	 179
  50	 186
  50	 201
  50	 209
  50	 235
  50	 238
  50	 239
  51	  61
  51	  77
  51	 107
  51	 140
  51	 141
  51	 145
  51	 156
  51	 159
  51	 168
  51	 176
  51	 190
  51	 192
  51	 208
  51	 222
  51	 223
  51	 229
  51	 237
  51	 241
  52	  54
  52	  78
  52	  97
  52	 107
  52	 133
  52	 134
  52	 141
  52	 149
  52	 166
  52	 182
  52	 184
  52	 187
  52	 218
  53	  68
  53	  73
  53	  94
  53	 112
  53	 127
  53	 134
  53	 149
  53	 151
  53	 159
  53	 164
  53	 165
  53	 173
  53	 179
  53	 181
  53	 184
  53	 194
  53	 197
  53	 201
  53	 246
  54	  55
  54	  83
  54	  87
  54	 102
  54	 104
  54	 109
  54	 113
  54	 118
  54	 160
  54	 164
  54	 190
  54	 192
  54	 207
  54	 212
  54	 213
  54	 219
  54	 225
  54	 235
  55	  56
  55	  60
  55	  78
  55	  83
  55	 116
  55	 122
  55	 135
  55	 174
  55	 189
  55	 193
  55	 197
  55	 218
  55	 242
  55	 244
  56	  57
  56	  79
  56	  80
  56	  94
  56	 121
  56	 124
  56	 130
  56	 138
  56	 149
  56	 159
  56	 161
  56	 192
  56	 204
  56	 223
  57	  85
  57	  93
  57	  96
  57	 111
  57	 112
  57	 115
  57	 119
  57	 123
  57	 128
  57	 154
  57	 157
  57	 161
  57	 165
  57	 166
  57	 169
  57	 182
  57	 189
  57	 190
  57	 192
  57	 193
  57	 206
  57	 207
  57	 216
  57	 226
  57	 245
  58	  60
  58	  68
  58	  73
  58	  80
  58	  92
  58	 105
  58	 114
  58	 121
  58	 126
  58	 134
  58	 135
  58	 141
  58	 152
  58	 154
  58	 161
  58	 163
  58	 172
  58	 178
  58	 182
  58	 183
  58	 189
  58	 193
  58	 210
  58	 216
  58	 240
  59	  73
  59	  76
  59	  78
  59	  88
  59	 100
  59	 107
  59	 113
  59	 140
  59	 148
  59	 154
  59	 159
  59	 163
  59	 168
  59	 181
  59	 195
  59	 196
  59	 199
  59	 216
  59	 217
  60	  72
  60	  78
  60	  86
  60	  92
  60	 105
  60	 106
  60	 114
  60	 124
  60	 139
  60	 165
  60	 169
  60	 172
  60	 173
  60	 188
  60	 192
  60	 199
  60	 209
  60	 222
  60	 230
  60	 232
  60	 240
  61	  63
  61	  67
  61	  99
  61	 107
  61	 109
  61	 124
  61	 130
  61	 136
  61	 156
  61	 167
  61	 175
  61	 190
  61	 194
  61	 205
  61	 216
  61	 235
  61	 236
  62	  64
  62	  69
  62	  71
  62	  82
  62	  84
  62	  88
  62	  89
  62	 101
  62	 105
  62	 113
  62	 116
  62	 120
  62	 125
  62	 129
  62	 131
  62	 135
  62	 162
  62	 175
  62	 177
  62	 182
  62	 197
  62	 201
  62	 207
  62	 212
  62	 221
  62	 237
  62	 243
  62	 246
  63	  81
  63	 101
  63	 103
  63	 112
  63	 129
  63	 152
  63	 153
  63	 157
  63	 161
  63	 176
  63	 201
  63	 202
  63	 216
  63	 236
  63	 240
  63	 248
  64	 107
  64	 111
  64	 127
  64	 132
  64	 134
  64	 136
  64	 152
  64	 153
  64	 157
  64	 160
  64	 166
  64	 179
  64	 199
  64	 203
  64	 220
  64	 238
  64	 244
  64	 245
  65	  66
  65	  73
  65	  80
  65	  84
  65	  87
  65	  94
  65	 105
  65	 115
  65	 122
  65	 126
  65	 133
  65	 139
  65	 141
  65	 143
  65	 148
  65	 162
  65	 163
  65	 176
  65	 177
  65	 180
  65	 198
  65	 214
  65	 218
  65	 238
  65	 247
  66	  71
  66	  93
  66	  95
  66	 112
  66	 126
  66	 133
  66	 138
  66	 139
  66	 150
  66	 158
  66	 171
  66	 177
  66	 184
  66	 188
  66	 215
  66	 216
  66	 239
  66	 241
  67	  70
  67	  76
  67	  78
  67	  82
  67	  83
  67	  96
  67	  98
  67	 114
  67	 127
  67	 138
  67	 162
  67	 179
  67	 191
  67	 193
  67	 200
  67	 214
  67	 218
  67	 223
  67	 232
  67	 237
  67	 243
  68	  70
  68	  74
  68	 108
  68	 127
  68	 129
  68	 132
  68	 140
  68	 144
  68	 154
  68	 158
  68	 170
  68	 186
  68	 204
  68	 206
  68	 229
  69	  70
  69	  73
  69	  86
  69	  92
  69	  94
  69	 100
  69	 104
  69	 125
  69	 126
  69	 127
  69	 135
  69	 136
  69	 147
  69	 161
  69	 162
  69	 164
  69	 170
  69	 173
  69	 180
  69	 185
  69	 190
  69	 203
  69	 214
  69	 217
  69	 219
  69	 225
  70	  73
  70	  78
  70	 111
  70	 116
  70	 151
  70	 163
  70	 168
  70	 169
  70	 170
  70	 191
  70	 206
  70	 207
  70	 218
  70	 219
  70	 220
  70	 245
  71	  74
  71	  81
  71	  84
  71	 101
  71	 103
  71	 110
  71	 127
  71	 141
  71	 157
  71	 162
  71	 164
  71	 167
  71	 170
  71	 188
  71	 212
  71	 224
  71	 226
  71	 228
  71	 240
  72	  75
  72	 108
  72	 109
  72	 138
  72	 144
  72	 145
  72	 175
  72	 180
  72	 186
  72	 191
  72	 208
  72	 221
  72	 236
  72	 241
  72	 242
  73	  94
  73	  96
  73	 100
  73	 118
  73	 120
  73	 125
  73	 131
  73	 134
  73	 153
  73	 154
  73	 155
  73	 157
  73	 173
  73	 176
  73	 177
  73	 178
  73	 181
  73	 192
  73	 203
  73	 225
  73	 228
  73	 232
  74	  75
  74	  77
  74	 102
  74	 115
  74	 122
  74	 165
  74	 171
  74	 177
  74	 183
  74	 193
  74	 236
  74	 242
  75	  83
  75	  86
  75	  97
  75	 103
  75	 107
  75	 113
  75	 117
  75	 120
  75	 128
  75	 137
  75	 156
  75	 162
  75	 163
  75	 164
  75	 166
  75	 194
  75	 209
  75	 210
  75	 223
  75	 228
  75	 233
  75	 235
  75	 242
  76	  91
  76	  97
  76	 115
  76	 124
  76	 125
  76	 151
  76	 176
  76	 188
  76	 194
  76	 200
  76	 207
  76	 209
  76	 226
  76	 227
  76	 232
  76	 234
  76	 236
  76	 237
  76	 247
  77	  81
  77	  94
  77	  95
  77	 105
  77	 117
  77	 123
  77	 126
  77	 133
  77	 143
  77	 165
  77	 175
  77	 180
  77	 181
  77	 184
  77	 188
  77	 207
  77	 219
  77	 226
  77	 231
  77	 233
  77	 234
  77	 248
  78	  82
  78	  84
  78	  95
  78	  96
  78	  98
  78	 100
  78	 124
  78	 128
  78	 129
  78	 181
  78	 192
  78	 202
  78	 220
  78	 234
  78	 245
  79	  94
  79	 100
  79	 101
  79	 109
  79	 110
  79	 116
  79	 141
  79	 143
  79	 160
  79	 170
  79	 181
  79	 189
  79	 196
  79	 200
  79	 204
  79	 238
  80	  90
  80	 145
  80	 147
  80	 158
  80	 169
  80	 180
  80	 182
  80	 184
  80	 207
  80	 212
  80	 217
  80	 218
  81	  91
  81	 104
  81	 114
  81	 116
  81	 123
  81	 159
  81	 174
  81	 175
  81	 191
  81	 193
  81	 200
  81	 208
  81	 213
  81	 231
  81	 233
  81	 241
  81	 243
  81	 248
  82	  84
  82	  85
  82	  87
  82	  89
  82	 126
  82	 127
  82	 130
  82	 138
  82	 151
  82	 172
  82	 174
  82	 191
  82	 202
  82	 206
  82	 213
  82	 219
  82	 221
  82	 233
  82	 247
  83	  85
  83	 105
  83	 115
  83	 121
  83	 126
  83	 127
  83	 152
  83	 161
  83	 166
  83	 169
  83	 172
  83	 204
  83	 214
  83	 216
  83	 228
  83	 240
  83	 246
  84	 111
  84	 118
  84	 120
  84	 134
  84	 148
  84	 164
  84	 179
  84	 184
  84	 205
  84	 208
  84	 213
  84	 219
  84	 230
  84	 232
  84	 248
  85	  94
  85	 105
  85	 107
  85	 126
  85	 160
  85	 164
  85	 199
  85	 202
  85	 211
  85	 240
  86	  97
  86	 109
  86	 131
  86	 139
  86	 156
  86	 202
  86	 211
  86	 217
  86	 228
  86	 229
  86	 235
  86	 237
  87	  95
  87	 110
  87	 117
  87	 120
  87	 133
  87	 137
  87	 140
  87	 141
  87	 145
  87	 165
  87	 169
  87	 176
  87	 179
  87	 201
  87	 205
  87	 229
  87	 235
  88	  91
  88	 103
  88	 117
  88	 119
  88	 133
  88	 137
  88	 185
  88	 189
  88	 196
  88	 199
  88	 204
  88	 205
  88	 209
  88	 212
  88	 217
  88	 220
  88	 225
  88	 227
  88	 229
  88	 235
  89	  95
  89	 102
  89	 123
  89	 126
  89	 132
  89	 167
  89	 176
  89	 190
  89	 201
  89	 213
  89	 214
  89	 216
  89	 218
  89	 240
  89	 244
  90	  94
  90	 108
  90	 130
  90	 158
  90	 165
  90	 167
  90	 168
  90	 174
  90	 184
  90	 186
  90	 189
  90	 193
  90	 201
  90	 219
  91	  99
  91	 103
  91	 110
  91	 118
  91	 133
  91	 141
  91	 152
  91	 160
  91	 161
  91	 167
  91	 171
  91	 176
  91	 189
  91	 207
  91	 209
  91	 234
  91	 236
  91	 239
  91	 247
  92	  93
  92	  99
  92	 106
  92	 107
  92	 122
  92	 146
  92	 160
  92	 171
  92	 174
  92	 175
  92	 185
  92	 195
  92	 199
  92	 224
  92	 235
  92	 239
  92	 240
  92	 242
  93	 104
  93	 130
  93	 153
  93	 158
  93	 160
  93	 177
  93	 181
  93	 184
  93	 187
  93	 234
  93	 237
  94	  95
  94	  98
  94	 105
  94	 108
  94	 118
  94	 125
  94	 126
  94	 129
  94	 156
  94	 167
  94	 195
  94	 206
  94	 207
  94	 211
  94	 237
  94	 240
  94	 245
  95	 102
  95	 105
  95	 133
  95	 143
  95	 167
  95	 168
  95	 191
  95	 196
  95	 206
  95	 209
  95	 211
  95	 214
  95	 220
  95	 226
  95	 234
  95	 240
  96	 103
  96	 107
  96	 111
  96	 137
  96	 154
  96	 168
  96	 170
  96	 172
  96	 175
  96	 179
  96	 185
  96	 189
  96	 198
  96	 205
  96	 222
  96	 223
  96	 242
  96	 244
  97	 110
  97	 119
  97	 120
  97	 121
  97	 122
  97	 136
  97	 186
  97	 187
  97	 190
  97	 202
  97	 209
  97	 214
  97	 238
  97	 239
  97	 242
  98	  99
  98	 151
  98	 163
  98	 169
  98	 171
  98	 173
  98	 188
  98	 194
  98	 198
  98	 205
  98	 211
  98	 238
  99	 103
  99	 107
  99	 132
  99	 148
  99	 155
  99	 164
  99	 171
  99	 180
  99	 183
  99	 186
  99	 188
  99	 190
  99	 192
  99	 198
  99	 201
  99	 209
  99	 216
  99	 218
  99	 223
  99	 226
  99	 228
  99	 245
  99	 248
 100	 105
 100	 106
 100	 116
 100	 126
 100	 151
 100	 153
 100	 165
 100	 172
 100	 175
 100	 192
 100	 194
 100	 209
 100	 220
 100	 233
 100	 234
 100	 248
 101	 107
 101	 117
 101	 119
 101	 135
 101	 145
 101	 155
 101	 161
 101	 165
 101	 177
 101	 178
 101	 181
 101	 203
 101	 211
 101	 226
 101	 230
 101	 236
 101	 247
 102	 103
 102	 108
 102	 109
 102	 115
 102	 122
 102	 139
 102	 140
 102	 147
 102	 150
 102	 154
 102	 168
 102	 187
 102	 206
 102	 211
 102	 226
 102	 236
 102	 243
 102	 246
 103	 141
 103	 151
 103	 154
 103	 217
 103	 219
 103	 226
 103	 228
 104	 123
 104	 134
 104	 147
 104	 158
 104	 160
 104	 161
 104	 184
 104	 205
 104	 214
 104	 216
 104	 222
 104	 235
 104	 239
 105	 132
 105	 137
 105	 173
 105	 174
 105	 189
 105	 206
 105	 207
 105	 224
 105	 226
 105	 246
 106	 112
 106	 124
 106	 126
 106	 128
 106	 144
 106	 148
 106	 149
 106	 169
 106	 190
 106	 201
 106	 211
 106	 213
 106	 222
 106	 239
 106	 241
 107	 119
 107	 133
 107	 145
 107	 150
 107	 152
 107	 155
 107	 156
 107	 163
 107	 164
 107	 171
 107	 195
 107	 196
 108	 117
 108	 135
 108	 140
 108	 170
 108	 172
 108	 175
 108	 176
 108	 233
 108	 240
 108	 248
 109	 112
 109	 136
 109	 139
 109	 140
 109	 141
 109	 148
 109	 155
 109	 157
 109	 161
 109	 176
 109	 207
 109	 210
 109	 232
 109	 235
 109	 236
 109	 241
 110	 125
 110	 127
 110	 144
 110	 150
 110	 152
 110	 154
 110	 165
 110	 172
 110	 178
 110	 206
 110	 218
 110	 226
 110	 230
 110	 242
 111	 114
 111	 127
 111	 138
 111	 145
 111	 153
 111	 165
 111	 185
 111	 186
 111	 194
 111	 195
 111	 203
 111	 214
 111	 222
 111	 245
 111	 248
 112	 131
 112	 135
 112	 161
 112	 169
 112	 175
 112	 242
 112	 246
 113	 114
 113	 127
 113	 131
 113	 172
 113	 206
 113	 220
 113	 222
 113	 235
 114	 119
 114	 123
 114	 124
 114	 127
 114	 138
 114	 146
 114	 153
 114	 158
 114	 174
 114	 203
 114	 207
 114	 208
 114	 218
 114	 242
 115	 118
 115	 121
 115	 136
 115	 137
 115	 141
 115	 155
 115	 157
 115	 162
 115	 173
 115	 185
 115	 190
 115	 196
 115	 201
 115	 216
 115	 222
 115	 231
 115	 236
 116	 123
 116	 134
 116	 142
 116	 153
 116	 169
 116	 175
 116	 189
 116	 193
 116	 204
 117	 121
 117	 132
 117	 138
 117	 141
 117	 146
 117	 147
 117	 156
 117	 193
 117	 203
 117	 211
 117	 215
 117	 217
 117	 219
 117	 221
 117	 224
 117	 225
 117	 234
 118	 119
 118	 131
 118	 132
 118	 143
 118	 144
 118	 163
 118	 164
 118	 170
 118	 171
 118	 196
 118	 202
 118	 217
 118	 222
 118	 225
 118	 227
 118	 228
 118	 236
 118	 241
 119	 125
 119	 126
 119	 129
 119	 137
 119	 164
 119	 171
 119	 188
 119	 196
 119	 197
 119	 217
 119	 224
 119	 228
 119	 234
 119	 235
 119	 242
 120	 124
 120	 126
 120	 127
 120	 129
 120	 135
 120	 153
 120	 164
 120	 172
 120	 213
 120	 236
 121	 124
 121	 126
 121	 128
 121	 150
 121	 153
 121	 158
 121	 175
 121	 176
 121	 180
 121	 210
 121	 228
 121	 238
 122	 152
 122	 153
 122	 160
 122	 182
 122	 183
 122	 201
 122	 213
 122	 222
 122	 223
 122	 241
 122	 243
 122	 248
 123	 124
 123	 145
 123	 170
 123	 172
 123	 187
 123	 200
 123	 206
 123	 218
 123	 226
 123	 229
 123	 232
 124	 129
 124	 134
 124	 140
 124	 156
 124	 158
 124	 164
 124	 168
 124	 169
 124	 179
 124	 183
 124	 187
 124	 197
 124	 222
 124	 229
 124	 247
 125	 134
 125	 136
 125	 137
 125	 141
 125	 153
 125	 161
 125	 163
 125	 165
 125	 169
 125	 178
 125	 202
 125	 204
 125	 213
 125	 220
 125	 239
 125	 240
 126	 127
 126	 132
 126	 136
 126	 138
 126	 143
 126	 151
 126	 155
 126	 183
 126	 194
 126	 201
 126	 226
 126	 237
 126	 245
 127	 134
 127	 137
 127	 147
 127	 151
 127	 217
 127	 234
 127	 235
 127	 243
 127	 246
 128	 139
 128	 153
 128	 158
 128	 162
 128	 165
 128	 167
 128	 172
 128	 197
 128	 199
 128	 202
 128	 209
 128	 212
 128	 216
 128	 226
 128	 243
 128	 246
 129	 139
 129	 146
 129	 169
 129	 174
 129	 175
 129	 192
 129	 194
 129	 221
 129	 226
 129	 229
 129	 234
 129	 240
 130	 138
 130	 170
 130	 184
 130	 191
 130	 209
 130	 220
 130	 222
 131	 145
 131	 148
 131	 162
 131	 167
 131	 171
 131	 208
 131	 223
 131	 225
 131	 227
 131	 228
 131	 239
 132	 133
 132	 145
 132	 147
 132	 152
 132	 167
 132	 174
 132	 176
 132	 180
 132	 181
 132	 199
 132	 200
 132	 204
 132	 229
 132	 234
 132	 239
 133	 135
 133	 144
 133	 151
 134	 137
 134	 139
 134	 143
 134	 156
 134	 157
 134	 158
 134	 168
 134	 177
 134	 188
 134	 200
 134	 205
 134	 207
 134	 211
 134	 213
 134	 215
 134	 227
 135	 140
 135	 144
 135	 159
 135	 162
 135	 176
 135	 179
 135	 211
 135	 246
 136	 139
 136	 141
 136	 144
 136	 157
 136	 159
 136	 167
 136	 177
 136	 181
 136	 190
 136	 197
 136	 201
 136	 234
 136	 237
 136	 240
 137	 155
 137	 159
 137	 176
 137	 185
 137	 187
 137	 211
 137	 212
 137	 228
 137	 233
 137	 244
 138	 162
 138	 174
 138	 177
 138	 179
 138	 182
 138	 196
 138	 201
 138	 202
 138	 208
 138	 227
 138	 229
 138	 232
 139	 140
 139	 147
 139	 169
 139	 175
 139	 181
 139	 186
 139	 194
 139	 206
 139	 215
 139	 238
 140	 144
 140	 153
 140	 168
 140	 190
 140	 194
 140	 199
 140	 211
 140	 215
 140	 219
 140	 234
 140	 244
 140	 246
 140	 248
 141	 142
 141	 146
 141	 150
 141	 153
 141	 159
 141	 166
 141	 175
 141	 184
 141	 185
 141	 187
 141	 199
 141	 208
 141	 214
 141	 246
 142	 146
 142	 155
 142	 166
 142	 186
 142	 189
 142	 199
 142	 209
 142	 210
 142	 240
 142	 242
 143	 163
 143	 183
 143	 192
 143	 198
 143	 219
 143	 225
 143	 232
 143	 235
 144	 151
 144	 160
 144	 175
 144	 181
 144	 210
 144	 212
 144	 229
 144	 241
 145	 148
 145	 156
 145	 158
 145	 164
 145	 179
 145	 181
 145	 208
 145	 220
 145	 232
 145	 240
 145	 241
 146	 160
 146	 168
 146	 173
 146	 180
 146	 185
 146	 190
 146	 205
 146	 210
 146	 215
 146	 220
 146	 227
 146	 241
 147	 155
 147	 156
 147	 168
 147	 175
 147	 180
 147	 186
 147	 187
 147	 190
 147	 196
 147	 213
 147	 217
 147	 219
 147	 237
 147	 239
 147	 240
 147	 247
 148	 172
 148	 174
 148	 175
 148	 196
 148	 205
 148	 215
 148	 222
 148	 223
 148	 227
 148	 229
 148	 240
 149	 158
 149	 200
 149	 221
 149	 232
 149	 235
 150	 157
 150	 166
 150	 185
 150	 189
 150	 192
 150	 193
 150	 215
 150	 221
 150	 222
 151	 162
 151	 169
 151	 173
 151	 179
 151	 183
 151	 184
 151	 191
 151	 195
 151	 203
 151	 209
 151	 212
 151	 236
 151	 238
 152	 153
 152	 167
 152	 182
 152	 189
 152	 203
 152	 217
 152	 224
 152	 229
 152	 239
 153	 163
 153	 164
 153	 178
 153	 181
 153	 184
 153	 220
 153	 223
 153	 226
 154	 158
 154	 159
 154	 168
 154	 178
 154	 206
 154	 214
 154	 217
 154	 226
 154	 228
 154	 230
 154	 238
 155	 161
 155	 165
 155	 168
 155	 171
 155	 194
 155	 196
 155	 200
 155	 220
 155	 223
 155	 227
 155	 230
 155	 237
 155	 239
 155	 244
 155	 248
 156	 168
 156	 169
 156	 185
 156	 208
 156	 220
 156	 238
 156	 244
 157	 161
 157	 169
 157	 174
 157	 195
 157	 228
 157	 232
 157	 237
 157	 244
 158	 176
 158	 189
 158	 193
 158	 201
 158	 217
 158	 230
 158	 244
 159	 167
 159	 186
 159	 207
 159	 210
 159	 226
 159	 245
 160	 174
 160	 178
 160	 182
 160	 196
 160	 208
 160	 224
 161	 175
 161	 186
 161	 200
 161	 204
 161	 212
 161	 233
 162	 165
 162	 169
 162	 185
 162	 194
 162	 205
 162	 206
 162	 208
 162	 228
 162	 231
 162	 235
 163	 174
 163	 186
 163	 197
 163	 200
 163	 204
 163	 210
 163	 212
 163	 236
 163	 243
 164	 166
 164	 169
 164	 170
 164	 176
 164	 177
 164	 185
 164	 186
 164	 201
 164	 203
 164	 210
 164	 218
 164	 224
 164	 229
 164	 234
 164	 239
 165	 169
 165	 203
 165	 211
 165	 219
 165	 222
 165	 224
 165	 226
 166	 168
 166	 171
 166	 174
 166	 176
 166	 186
 166	 212
 166	 242
 167	 173
 167	 213
 167	 217
 167	 233
 167	 239
 168	 177
 168	 185
 168	 204
 168	 205
 168	 206
 168	 211
 168	 240
 169	 170
 169	 205
 169	 220
 169	 242
 170	 188
 170	 209
 170	 212
 170	 216
 170	 228
 170	 243
 171	 185
 171	 187
 171	 192
 171	 193
 171	 199
 171	 216
 171	 242
 171	 243
 172	 191
 172	 193
 172	 197
 172	 203
 172	 204
 172	 220
 172	 229
 172	 238
 172	 241
 172	 243
 173	 198
 173	 203
 173	 214
 173	 218
 173	 221
 173	 229
 173	 233
 173	 234
 174	 178
 174	 194
 174	 202
 174	 207
 174	 213
 174	 218
 174	 223
 174	 226
 174	 239
 174	 247
 175	 185
 175	 190
 175	 191
 175	 194
 175	 196
 175	 201
 175	 222
 175	 234
 175	 235
 175	 236
 175	 243
 175	 247
 176	 177
 176	 188
 176	 190
 176	 212
 176	 215
 176	 218
 176	 247
 177	 190
 177	 200
 177	 201
 177	 214
 178	 180
 178	 188
 178	 212
 178	 221
 178	 227
 178	 232
 178	 238
 179	 190
 179	 199
 179	 200
 179	 208
 179	 214
 179	 217
 179	 222
 179	 230
 179	 243
 180	 189
 180	 195
 180	 203
 180	 208
 180	 212
 180	 222
 180	 224
 180	 225
 180	 244
 180	 246
 181	 194
 181	 200
 181	 208
 181	 212
 181	 220
 181	 221
 181	 236
 181	 238
 181	 246
 181	 247
 181	 248
 182	 192
 182	 194
 182	 202
 182	 208
 182	 220
 182	 233
 182	 237
 183	 195
 183	 202
 183	 221
 183	 235
 183	 244
 183	 248
 184	 186
 184	 203
 184	 209
 184	 227
 184	 247
 185	 186
 185	 187
 185	 197
 185	 203
 185	 204
 185	 210
 185	 225
 185	 230
 185	 232
 185	 234
 186	 199
 186	 212
 186	 217
 186	 219
 186	 220
 186	 222
 186	 225
 187	 188
 187	 198
 187	 245
 187	 246
 188	 193
 188	 196
 188	 212
 188	 217
 188	 241
 189	 212
 189	 213
 189	 214
 189	 222
 189	 228
 189	 247
 190	 194
 190	 198
 190	 199
 190	 200
 190	 201
 190	 204
 190	 207
 190	 208
 190	 210
 190	 221
 190	 222
 190	 237
 190	 242
 192	 197
 192	 220
 192	 226
 192	 230
 192	 236
 192	 237
 192	 243
 193	 195
 193	 204
 193	 210
 193	 220
 193	 222
 193	 228
 193	 247
 194	 202
 194	 212
 194	 215
 194	 230
 194	 238
 194	 245
 195	 234
 195	 236
 196	 198
 196	 200
 196	 204
 196	 207
 196	 210
 196	 229
 196	 236
 196	 247
 197	 205
 197	 209
 197	 220
 197	 226
 197	 239
 197	 245
 198	 202
 198	 206
 198	 207
 198	 208
 198	 211
 198	 215
 198	 243
 198	 244
 199	 204
 199	 210
 199	 224
 199	 235
 199	 248
 200	 208
 200	 225
 200	 228
 200	 239
 201	 205
 201	 229
 201	 235
 202	 204
 202	 218
 202	 231
 203	 216
 203	 222
 203	 224
 203	 242
 204	 205
 204	 207
 204	 215
 204	 223
 204	 232
 204	 236
 204	 242
 204	 243
 205	 209
 205	 226
 205	 230
 205	 248
 206	 220
 206	 231
 206	 236
 206	 246
 207	 221
 207	 226
 207	 233
 207	 240
 207	 244
 208	 215
 208	 223
 208	 232
 208	 239
 209	 221
 209	 240
 209	 247
 210	 211
 210	 225
 210	 226
 210	 228
 210	 237
 211	 224
 211	 237
 212	 213
 212	 222
 212	 228
 212	 245
 213	 216
 213	 231
 213	 247
 214	 227
 214	 237
 215	 216
 215	 226
 215	 231
 215	 233
 215	 235
 215	 236
 216	 217
 216	 218
 216	 220
 216	 247
 217	 226
 218	 225
 218	 233
 220	 221
 220	 247
 220	 248
 221	 227
 221	 240
 221	 241
 221	 243
 222	 224
 222	 227
 222	 237
 224	 240
 224	 244
 224	 245
 225	 226
 225	 234
 225	 247
 226	 227
 226	 234
 226	 246
 228	 232
 229	 246
 230	 233
 230	 243
 231	 235
 231	 247
 232	 244
 233	 240
 233	 242
 234	 243
 234	 244
 235	 238
 236	 246
 237	 247
 239	 243
 241	 244
 241	 248
 242	 244
;
